NAME: clu_20_5
TYPE: TSP
DIMENSION: 20
EDGE_WEIGHT_TYPE: EUC_2D
NODE_COORD_SECTION
1 3 58
2 -3 56
3 0 62
4 51 102
5 23 77
6 34 78
7 55 90
8 107 14
9 35 104
10 33 99
11 13 66
12 31 85
13 53 92
14 7 74
15 46 106
16 11 59
17 30 47
18 105 4
19 4 61
20 58 101
EOF
